Minimize

2.0 x_0 + 3.0 x_1 + 5.0 x_2 + 3.5 x_3 + 1.5 x_4


Subject To

a0: y_0 + y_1 + y_2 <= 2
b0: 0 x_0 + 0 x_1 + 1 x_2 + 1 x_3 + 0 x_4 >= 1
b1: 1 x_0 + 0 x_1 + 0 x_2 + 0 x_3 + 0 x_4 >= 1
b2: 1 x_0 + 0 x_1 + 0 x_2 + 1 x_3 + 0 x_4 >= 1
b3: 0 x_0 + 1 x_1 + 0 x_2 + 1 x_3 + 1 x_4 >= 1
b4: 0 x_0 + 0 x_1 + 1 x_2 + 0 x_3 + 1 x_4 >= 1
c0: x_4 - y_2 <= 0




 


End
